Set parameter TokenServer to value "hpc-licenses.hpcc.usc.edu"
Set parameter TimeLimit to value 3600
Gurobi Optimizer version 9.5.1 build v9.5.1rc2 (linux64)
Thread count: 20 physical cores, 20 logical processors, using up to 20 threads
Optimize a model with 6007 rows, 4529 columns and 24534 nonzeros
Model fingerprint: 0x97724317
Variable types: 4506 continuous, 23 integer (23 binary)
Coefficient statistics:
  Matrix range     [1e+00, 1e+00]
  Objective range  [7e-05, 1e+00]
  Bounds range     [1e+00, 1e+00]
  RHS range        [1e+00, 1e+02]
Presolve removed 1520 rows and 1515 columns
Presolve time: 0.09s
Presolved: 4487 rows, 3014 columns, 21975 nonzeros
Variable types: 2994 continuous, 20 integer (20 binary)
Found heuristic solution: objective 260.7777937

Root relaxation: objective 2.702877e+02, 3117 iterations, 0.11 seconds (0.14 work units)

    Nodes    |    Current Node    |     Objective Bounds      |     Work
 Expl Unexpl |  Obj  Depth IntInf | Incumbent    BestBd   Gap | It/Node Time

     0     0  270.28768    0    2  260.77779  270.28768  3.65%     -    0s
     0     0  270.20652    0    2  260.77779  270.20652  3.62%     -    0s
H    0     0                     263.2658272  270.03795  2.57%     -    0s
     0     0  270.03795    0    2  263.26583  270.03795  2.57%     -    0s
     0     0  269.62265    0    5  263.26583  269.62265  2.41%     -    0s
     0     0  269.58486    0    5  263.26583  269.58486  2.40%     -    0s
     0     0  269.52173    0    5  263.26583  269.52173  2.38%     -    0s
     0     0  269.51175    0    5  263.26583  269.51175  2.37%     -    0s
     0     0  269.49047    0    5  263.26583  269.49047  2.36%     -    0s
     0     0  269.47994    0    5  263.26583  269.47994  2.36%     -    0s
     0     0  269.47930    0    5  263.26583  269.47930  2.36%     -    0s
     0     0  269.47903    0    5  263.26583  269.47903  2.36%     -    0s
     0     0  269.47900    0    2  263.26583  269.47900  2.36%     -    0s
     0     0  269.24474    0    5  263.26583  269.24474  2.27%     -    0s
     0     0  269.23708    0    5  263.26583  269.23708  2.27%     -    0s
     0     0  269.01205    0    5  263.26583  269.01205  2.18%     -    0s
     0     0  269.01205    0    2  263.26583  269.01205  2.18%     -    0s
     0     0  269.01205    0    2  263.26583  269.01205  2.18%     -    1s
     0     0  269.01205    0    2  263.26583  269.01205  2.18%     -    1s
H    0     0                     265.0751168  269.01205  1.49%     -    1s
     0     0  269.01205    0    5  265.07512  269.01205  1.49%     -    1s
     0     0  269.01205    0    2  265.07512  269.01205  1.49%     -    1s
     0     0  269.01205    0    2  265.07512  269.01205  1.49%     -    2s
     0     0  269.01205    0    2  265.07512  269.01205  1.49%     -    2s
     0     0  269.01205    0    7  265.07512  269.01205  1.49%     -    2s
     0     0  269.01205    0    7  265.07512  269.01205  1.49%     -    2s
     0     0  269.01205    0    7  265.07512  269.01205  1.49%     -    2s
     0     0  269.01205    0    7  265.07512  269.01205  1.49%     -    2s
     0     0  269.01205    0    7  265.07512  269.01205  1.49%     -    2s
     0     0  269.01205    0    7  265.07512  269.01205  1.49%     -    2s
     0     0  269.01205    0    5  265.07512  269.01205  1.49%     -    2s
     0     0  269.01205    0    5  265.07512  269.01205  1.49%     -    2s
     0     0  269.01205    0    5  265.07512  269.01205  1.49%     -    2s
     0     0  269.01205    0    5  265.07512  269.01205  1.49%     -    2s
     0     0  269.01205    0    5  265.07512  269.01205  1.49%     -    2s
     0     0  269.01205    0    5  265.07512  269.01205  1.49%     -    2s
     0     0  269.01205    0    5  265.07512  269.01205  1.49%     -    2s
     0     0  269.01205    0    5  265.07512  269.01205  1.49%     -    2s
     0     0  269.01205    0    5  265.07512  269.01205  1.49%     -    2s
     0     0  269.01205    0    5  265.07512  269.01205  1.49%     -    2s
     0     0  269.00395    0    5  265.07512  269.00395  1.48%     -    2s
     0     0  269.00395    0    2  265.07512  269.00395  1.48%     -    2s
     0     0  269.00395    0    2  265.07512  269.00395  1.48%     -    2s
     0     0  268.83135    0    6  265.07512  268.83135  1.42%     -    2s
H    0     0                     268.4843141  268.83135  0.13%     -    2s
     0     0  268.61369    0    5  268.48431  268.61369  0.05%     -    2s
     0     0  268.61157    0    6  268.48431  268.61157  0.05%     -    2s
     0     0  268.54356    0    8  268.48431  268.54356  0.02%     -    3s
     0     0  268.48431    0    6  268.48431  268.48431  0.00%     -    3s

Cutting planes:
  Gomory: 2
  MIR: 611
  Flow cover: 12
  RLT: 7
  Relax-and-lift: 3

Explored 1 nodes (7206 simplex iterations) in 3.05 seconds (1.54 work units)
Thread count was 20 (of 20 available processors)

Solution count 4: 268.484 265.075 263.266 260.778 

Optimal solution found (tolerance 1.00e-04)
Best objective 2.684843141097e+02, best bound 2.684843141097e+02, gap 0.0000%



#########node  1
V1.8
#########node  2
0.019607843137254943,0.9803921568627451
#########node  3
1.0,0.0


Total Solving Time 3.4795725345611572
obj value 268.4843141096786
Policy Regret train (Sum) 13.487813242844421
Best Treatment Found train (%) 49.0
treatment classification acc train (%) 35.4
Policy Regret test (Sum) 61.813832268000596
Best Treatment Found test (%) 75.11
treatment classification acc test (%) 33.57
Set parameter TokenServer to value "hpc-licenses.hpcc.usc.edu"
Set parameter TimeLimit to value 3600
Gurobi Optimizer version 9.5.1 build v9.5.1rc2 (linux64)
Thread count: 20 physical cores, 20 logical processors, using up to 20 threads
Optimize a model with 6007 rows, 4529 columns and 24534 nonzeros
Model fingerprint: 0x97724317
Variable types: 4506 continuous, 23 integer (23 binary)
Coefficient statistics:
  Matrix range     [1e+00, 1e+00]
  Objective range  [7e-05, 1e+00]
  Bounds range     [1e+00, 1e+00]
  RHS range        [1e+00, 1e+02]
Presolve removed 1520 rows and 1515 columns
Presolve time: 0.08s
Presolved: 4487 rows, 3014 columns, 21975 nonzeros
Variable types: 2994 continuous, 20 integer (20 binary)
Found heuristic solution: objective 260.7777937

Root relaxation: objective 2.702877e+02, 3117 iterations, 0.09 seconds (0.14 work units)

    Nodes    |    Current Node    |     Objective Bounds      |     Work
 Expl Unexpl |  Obj  Depth IntInf | Incumbent    BestBd   Gap | It/Node Time

     0     0  270.28768    0    2  260.77779  270.28768  3.65%     -    0s
     0     0  270.20652    0    2  260.77779  270.20652  3.62%     -    0s
H    0     0                     263.2658272  270.03795  2.57%     -    0s
     0     0  270.03795    0    2  263.26583  270.03795  2.57%     -    0s
     0     0  269.62265    0    5  263.26583  269.62265  2.41%     -    0s
     0     0  269.58486    0    5  263.26583  269.58486  2.40%     -    0s
     0     0  269.52173    0    5  263.26583  269.52173  2.38%     -    0s
     0     0  269.51175    0    5  263.26583  269.51175  2.37%     -    0s
     0     0  269.49047    0    5  263.26583  269.49047  2.36%     -    0s
     0     0  269.47994    0    5  263.26583  269.47994  2.36%     -    0s
     0     0  269.47930    0    5  263.26583  269.47930  2.36%     -    0s
     0     0  269.47903    0    5  263.26583  269.47903  2.36%     -    0s
     0     0  269.47900    0    2  263.26583  269.47900  2.36%     -    0s
     0     0  269.24474    0    5  263.26583  269.24474  2.27%     -    0s
     0     0  269.23708    0    5  263.26583  269.23708  2.27%     -    0s
     0     0  269.01205    0    5  263.26583  269.01205  2.18%     -    0s
     0     0  269.01205    0    2  263.26583  269.01205  2.18%     -    0s
     0     0  269.01205    0    2  263.26583  269.01205  2.18%     -    0s
     0     0  269.01205    0    2  263.26583  269.01205  2.18%     -    1s
H    0     0                     265.0751168  269.01205  1.49%     -    1s
     0     0  269.01205    0    5  265.07512  269.01205  1.49%     -    1s
     0     0  269.01205    0    2  265.07512  269.01205  1.49%     -    1s
     0     0  269.01205    0    2  265.07512  269.01205  1.49%     -    1s
     0     0  269.01205    0    2  265.07512  269.01205  1.49%     -    1s
     0     0  269.01205    0    7  265.07512  269.01205  1.49%     -    2s
     0     0  269.01205    0    7  265.07512  269.01205  1.49%     -    2s
     0     0  269.01205    0    7  265.07512  269.01205  1.49%     -    2s
     0     0  269.01205    0    7  265.07512  269.01205  1.49%     -    2s
     0     0  269.01205    0    7  265.07512  269.01205  1.49%     -    2s
     0     0  269.01205    0    7  265.07512  269.01205  1.49%     -    2s
     0     0  269.01205    0    5  265.07512  269.01205  1.49%     -    2s
     0     0  269.01205    0    5  265.07512  269.01205  1.49%     -    2s
     0     0  269.01205    0    5  265.07512  269.01205  1.49%     -    2s
     0     0  269.01205    0    5  265.07512  269.01205  1.49%     -    2s
     0     0  269.01205    0    5  265.07512  269.01205  1.49%     -    2s
     0     0  269.01205    0    5  265.07512  269.01205  1.49%     -    2s
     0     0  269.01205    0    5  265.07512  269.01205  1.49%     -    2s
     0     0  269.01205    0    5  265.07512  269.01205  1.49%     -    2s
     0     0  269.01205    0    5  265.07512  269.01205  1.49%     -    2s
     0     0  269.01205    0    5  265.07512  269.01205  1.49%     -    2s
     0     0  269.00395    0    5  265.07512  269.00395  1.48%     -    2s
     0     0  269.00395    0    2  265.07512  269.00395  1.48%     -    2s
     0     0  269.00395    0    2  265.07512  269.00395  1.48%     -    2s
     0     0  268.83135    0    6  265.07512  268.83135  1.42%     -    2s
H    0     0                     268.4843141  268.83135  0.13%     -    2s
     0     0  268.61369    0    5  268.48431  268.61369  0.05%     -    2s
     0     0  268.61157    0    6  268.48431  268.61157  0.05%     -    2s
     0     0  268.54356    0    8  268.48431  268.54356  0.02%     -    3s
     0     0  268.48431    0    6  268.48431  268.48431  0.00%     -    3s

Cutting planes:
  Gomory: 2
  MIR: 611
  Flow cover: 12
  RLT: 7
  Relax-and-lift: 3

Explored 1 nodes (7206 simplex iterations) in 3.10 seconds (1.54 work units)
Thread count was 20 (of 20 available processors)

Solution count 4: 268.484 265.075 263.266 260.778 

Optimal solution found (tolerance 1.00e-04)
Best objective 2.684843141097e+02, best bound 2.684843141097e+02, gap 0.0000%



#########node  1
V1.8
#########node  2
0.019607843137254943,0.9803921568627451
#########node  3
1.0,0.0


Total Solving Time 3.4805569648742676
obj value 268.4843141096786
Policy Regret train (Sum) 13.487813242844421
Best Treatment Found train (%) 49.0
treatment classification acc train (%) 35.4
Policy Regret test (Sum) 61.813832268000596
Best Treatment Found test (%) 75.11
treatment classification acc test (%) 33.57
